nbNodes = 22;
nbVehi = 5;
nbServi = 5;


e = 
 [    0,   25,  213,  275,  177,  429,   49,  126,  381,   97,  406,  212,  152,  453,  128,  345,  281,  446,  320,  105,   56,    0, ];

l = 
 [ 480, 100, 320, 367, 237, 517, 129, 191, 465, 211, 525, 309, 252, 537, 238, 416, 382, 539, 401, 187, 141, 480,];


a = 
 [|  1,  1,  1,  1,  1,
 |  1,  1,  1,  1,  1,
 |  1,  1,  1,  1,  1,
 |  1,  1,  1,  1,  1,
 |  1,  1,  1,  1,  1,
 |];

p = array3d(1..nbNodes,1..nbVehi,1..nbServi,
[  0,  0,  0,  0,  0,	  0,  0,  0,  0,  0,	  0,  0,  0,  0,  0,	  0,  0,  0,  0,  0,	  0,  0,  0,  0,  0,	
 15, 10, 10, 15, 15,	 15, 13, 13, 12, 11,	 13, 13, 14, 12, 11,	 15, 12, 10, 12, 11,	 12, 13, 15, 12, 11,	
 12, 10, 14, 15, 10,	 14, 12, 14, 14, 11,	 12, 11, 14, 15, 11,	 10, 10, 14, 12, 10,	 15, 15, 12, 14, 12,	
 17, 12, 17, 17, 10,	 14, 17, 10, 17, 10,	 16, 11, 12, 11, 15,	 15, 11, 10, 11, 10,	 13, 13, 16, 17, 17,	
 11, 11, 15, 13, 15,	 11, 15, 13, 12, 12,	 14, 14, 15, 12, 15,	 15, 11, 10, 13, 12,	 15, 14, 15, 13, 13,	
 17, 12, 13, 15, 12,	 12, 14, 13, 13, 16,	 16, 12, 17, 13, 10,	 17, 11, 13, 16, 10,	 14, 15, 15, 17, 16,	
 10, 13, 16, 14, 10,	 10, 10, 10, 13, 11,	 11, 14, 11, 11, 15,	 13, 11, 16, 16, 11,	 15, 14, 13, 15, 12,	
 14, 13, 10, 11, 14,	 12, 14, 12, 12, 10,	 12, 13, 15, 13, 12,	 14, 11, 11, 15, 13,	 13, 10, 14, 14, 14,	
 12, 16, 15, 16, 14,	 15, 12, 14, 13, 11,	 13, 15, 16, 11, 14,	 10, 11, 13, 10, 10,	 16, 12, 11, 14, 13,	
 14, 14, 13, 10, 10,	 11, 10, 12, 12, 12,	 15, 12, 10, 10, 12,	 10, 12, 14, 15, 10,	 10, 12, 10, 10, 14,	
 12, 15, 13, 13, 10,	 10, 15, 12, 14, 15,	 12, 15, 13, 13, 10,	 15, 12, 12, 10, 10,	 15, 14, 12, 11, 13,	
 15, 12, 14, 16, 12,	 15, 10, 14, 11, 12,	 16, 15, 12, 10, 16,	 16, 11, 10, 14, 10,	 13, 14, 12, 14, 14,	
 15, 12, 12, 10, 12,	 13, 12, 12, 11, 11,	 10, 11, 12, 13, 12,	 14, 15, 15, 13, 12,	 13, 10, 12, 10, 10,	
 11, 10, 13, 10, 16,	 15, 10, 16, 15, 10,	 18, 12, 16, 12, 11,	 12, 18, 16, 18, 12,	 13, 18, 11, 10, 13,	
 12, 13, 14, 12, 11,	 14, 14, 14, 10, 14,	 14, 13, 14, 15, 12,	 12, 12, 12, 13, 11,	 12, 13, 10, 10, 13,	
 11, 11, 12, 10, 15,	 13, 12, 10, 11, 15,	 11, 14, 11, 15, 12,	 15, 11, 15, 12, 15,	 15, 12, 11, 15, 15,	
 11, 11, 10, 15, 12,	 14, 10, 13, 10, 15,	 10, 11, 15, 10, 11,	 14, 11, 13, 13, 14,	 13, 11, 15, 12, 13,	
 12, 13, 14, 16, 10,	 11, 12, 14, 13, 16,	 16, 10, 14, 10, 11,	 11, 16, 13, 15, 10,	 11, 16, 16, 15, 15,	
 11, 13, 13, 14, 10,	 12, 10, 11, 15, 16,	 12, 14, 16, 14, 15,	 13, 11, 16, 10, 16,	 10, 11, 13, 11, 15,	
 13, 15, 10, 13, 14,	 15, 15, 15, 10, 10,	 15, 11, 10, 15, 10,	 12, 11, 12, 13, 13,	 14, 15, 11, 15, 15,	
 10, 14, 14, 14, 10,	 10, 11, 15, 10, 12,	 14, 15, 11, 11, 15,	 11, 10, 15, 10, 15,	 15, 12, 14, 10, 14,	
  0,  0,  0,  0,  0,	  0,  0,  0,  0,  0,	  0,  0,  0,  0,  0,	  0,  0,  0,  0,  0,	  0,  0,  0,  0,  0,	
]);


rs = 
[|  true,  true,  true,  true,  true,	  	
|  false,  false,  false,  true,  false,	  
|  false,  false,  false,  false,  true,	  
|  false,  false,  false,  true,  false,	  	
|  false,  false,  false,  false,  true,	 	
|  false,  false,  false,  true,  false,	 	
|  true,  false,  false,  false,  false,	 	
|  false,  false,  false,  true,  false,	 	
|  false,  false,  false,  false,  true,	 	
|  false,  false,  false,  true,  false,	
|  false,  false,  false,  true,  false,	 
|  true,  false,  false,  false,  false,	  
|  false,  false,  true,  false,  false,	  	
|  false,  false,  false,  true,  false,	 	
|  false,  false,  false,  true,  false,	 	
|  false,  false,  false,  false,  true,	  	
|  true,  false,  false,  false,  false,	  	
|  false,  false,  false,  true,  false,	  	
|  false,  false,  true,  false,  false,	 	
|  false,  false,  false,  false,  true,	  	
|  false,  false,  false,  false,  true,	  	
|  true,  true,  true,  true,  true,	  
|];


d=[|0, 22, 16, 8, 28, 17, 17, 21, 28, 25, 4, 13, 12, 28, 10, 13, 20, 22, 21, 26, 3, 0, 
|22, 0, 35, 21, 7, 39, 23, 27, 50, 25, 26, 15, 31, 5, 12, 36, 30, 35, 10, 45, 23, 22, 
|16, 35, 0, 23, 42, 19, 32, 18, 18, 40, 13, 29, 5, 41, 24, 11, 34, 12, 30, 30, 13, 16, 
|8, 21, 23, 0, 25, 18, 8, 28, 32, 17, 10, 7, 20, 26, 12, 17, 13, 30, 24, 23, 11, 8, 
|28, 7, 42, 25, 0, 43, 24, 34, 56, 25, 32, 18, 37, 5, 18, 41, 31, 42, 16, 48, 29, 28, 
|17, 39, 19, 18, 43, 0, 23, 35, 16, 30, 13, 25, 20, 44, 27, 7, 21, 31, 39, 11, 18, 17, 
|17, 23, 32, 8, 24, 23, 0, 36, 38, 8, 18, 8, 29, 27, 17, 25, 7, 39, 28, 24, 20, 17, 
|21, 27, 18, 28, 34, 35, 36, 0, 37, 43, 23, 29, 15, 31, 20, 28, 41, 10, 18, 45, 18, 21, 
|28, 50, 18, 32, 56, 16, 38, 37, 0, 46, 23, 39, 22, 56, 38, 14, 37, 29, 47, 23, 26, 28, 
|25, 25, 40, 17, 25, 30, 8, 43, 46, 0, 26, 14, 37, 29, 24, 33, 10, 47, 33, 29, 28, 25, 
|4, 26, 13, 10, 32, 13, 18, 23, 23, 26, 0, 16, 11, 32, 14, 9, 20, 21, 25, 23, 5, 4, 
|13, 15, 29, 7, 18, 25, 8, 29, 39, 14, 16, 0, 25, 20, 10, 24, 15, 33, 20, 30, 16, 13, 
|12, 31, 5, 20, 37, 20, 29, 15, 22, 37, 11, 25, 0, 36, 19, 13, 32, 10, 25, 31, 9, 12, 
|28, 5, 41, 26, 5, 44, 27, 31, 56, 29, 32, 20, 36, 0, 17, 41, 34, 39, 13, 50, 29, 28, 
|10, 12, 24, 12, 18, 27, 17, 20, 38, 24, 14, 10, 19, 17, 0, 24, 24, 25, 12, 35, 11, 10, 
|13, 36, 11, 17, 41, 7, 25, 28, 14, 33, 9, 24, 13, 41, 24, 0, 24, 23, 34, 18, 13, 13, 
|20, 30, 34, 13, 31, 21, 7, 41, 37, 10, 20, 15, 32, 34, 24, 24, 0, 42, 35, 19, 24, 20, 
|22, 35, 12, 30, 42, 31, 39, 10, 29, 47, 21, 33, 10, 39, 25, 23, 42, 0, 26, 42, 18, 22, 
|21, 10, 30, 24, 16, 39, 28, 18, 47, 33, 25, 20, 25, 13, 12, 34, 35, 26, 0, 47, 21, 21, 
|26, 45, 30, 23, 48, 11, 24, 45, 23, 29, 23, 30, 31, 50, 35, 18, 19, 42, 47, 0, 28, 26, 
|3, 23, 13, 11, 29, 18, 20, 18, 26, 28, 5, 16, 9, 29, 11, 13, 24, 18, 21, 28, 0, 3, 
|0, 22, 16, 8, 28, 17, 17, 21, 28, 25, 4, 13, 12, 28, 10, 13, 20, 22, 21, 26, 3, 0, 
|];
